p cnf 10 35
-1 -9 6 5 -3 -8 -4 2 10 0
-7 3 -2 1 8 4 -9 0
5 6 -8 0
-1 -10 0
1 6 7 0
6 -3 -5 -8 1 7 0
9 10 4 1 0
-2 6 9 -7 8 -10 0
-10 3 -5 0
-10 2 -4 -1 -9 7 0
8 6 -1 0
-7 5 4 0
10 -1 0
-1 -3 -7 -6 -10 9 5 0
6 -10 4 0
10 -2 -8 0
-3 7 2 -4 0
10 -3 -4 -1 -6 2 0
10 8 1 0
-1 2 4 10 -9 -6 5 -3 0
6 5 1 -4 0
-1 -3 9 -7 8 -5 6 -4 -10 0
-5 2 8 0
1 7 -9 -3 0
4 10 7 0
10 -9 0
-7 9 0
1 -4 10 0
1 10 8 0
-2 -10 0
2 -3 6 0
7 8 -6 5 2 -9 0
5 -6 -8 10 1 0
-8 2 -10 0
-1 8 0
